3,1,8,1,5,1,6,1,10,1,7,3,3,5,11,5,9,5;1,1,1,2,9,1,5,2,1,3,3,2,6,2,7,2,3,4,10,2,10,3,5,4,5,5;4,1,4,2,8,3,9,3,3,3,11,3,2,3,7,4,10,4,4,5;11,1,8,2,9,2,7,1,4,3,8,4,9,4,5,3,2,4,4,4,6,4,7,5;2,1,2,2,1,4,11,2,1,5,6,3,11,4,8,5,2,5,6,5,10,5;
